85
28
141278	98806	0	0	1	0	1	1	1	1	0	1	0	1	1	1	0	0	0	0	1	0	1	0	1	1	0	1	0	0	
141258	99027	0	0	1	0	1	1	1	1	0	1	0	1	0	1	0	0	1	0	1	0	1	0	1	1	0	1	0	0	
141247	99363	0	0	1	0	1	1	1	1	0	1	0	1	0	1	1	0	0	0	1	0	1	0	1	1	0	1	0	0	
140618	108619	0	0	1	0	1	0	1	1	0	1	0	1	1	1	0	0	1	0	1	0	1	0	1	1	0	1	1	0	
140607	108955	0	0	1	0	1	0	1	1	0	1	0	1	1	1	1	0	0	0	1	0	1	0	1	1	0	1	1	0	
140477	119297	0	0	1	0	1	1	1	1	0	1	0	1	1	1	1	0	1	0	1	0	1	0	1	1	0	0	1	0	
140407	119430	0	0	1	0	1	1	1	1	0	1	0	1	0	1	1	1	1	0	1	0	1	0	1	1	0	0	1	0	
139547	119553	0	0	1	0	1	1	0	1	0	1	0	1	1	1	1	0	1	0	1	0	1	0	1	1	0	1	1	0	
139275	119689	1	0	1	0	1	0	1	1	0	1	0	1	1	1	1	0	1	0	1	0	1	0	1	1	0	0	1	0	
139002	119823	0	0	1	0	1	1	1	1	0	1	1	0	0	1	1	0	1	1	1	0	1	0	1	1	0	1	0	0	
138977	129698	0	0	1	0	1	0	1	1	0	1	1	1	1	1	1	1	1	0	1	0	1	0	1	1	0	0	1	0	
138797	129827	0	0	1	0	1	0	1	1	0	1	1	1	0	1	1	1	1	1	1	0	1	0	1	1	0	0	1	0	
138047	129954	0	0	1	0	1	0	0	1	0	1	1	1	1	1	1	1	1	0	1	0	1	0	1	1	0	1	1	0	
137792	130044	0	0	1	0	1	1	1	1	0	1	1	0	0	1	1	0	1	1	1	1	1	0	1	1	0	0	1	0	
137672	130361	0	1	1	0	1	1	1	1	0	1	1	0	0	1	1	0	1	1	1	0	1	0	1	1	0	0	1	0	
137582	139232	0	0	1	0	1	1	1	1	0	1	0	0	1	1	1	1	1	1	1	1	1	0	1	1	0	0	1	0	
137462	139549	0	1	1	0	1	1	1	1	0	1	0	0	1	1	1	1	1	1	1	0	1	0	1	1	0	0	1	0	
137157	139767	0	0	1	0	1	1	0	1	0	1	0	1	1	1	1	1	1	1	1	1	1	0	1	1	0	0	1	0	
137037	140084	0	1	1	0	1	1	0	1	0	1	0	1	1	1	1	1	1	1	1	0	1	0	1	1	0	0	1	0	
136555	140596	1	0	1	0	1	0	0	1	0	1	1	1	1	1	1	1	1	1	1	0	1	0	1	1	0	0	1	0	
135470	140617	1	1	1	0	1	0	1	1	0	1	1	0	1	1	1	1	1	1	1	0	1	0	1	1	0	0	0	0	
135327	140731	0	1	1	0	1	0	0	1	0	1	1	1	1	1	1	1	1	0	1	1	1	0	1	1	0	0	1	0	
135215	140846	1	0	1	0	1	0	0	1	0	1	1	0	1	1	1	1	1	1	1	0	1	1	1	1	0	0	1	0	
135045	141152	1	1	1	0	1	0	0	1	0	1	1	1	1	1	1	1	1	1	1	0	1	0	1	1	0	0	0	0	
134022	141158	0	1	1	0	1	1	0	1	0	1	1	0	0	1	1	1	1	1	1	1	1	0	1	1	0	0	1	0	
133705	141402	1	1	1	0	1	0	0	1	0	1	1	0	1	1	1	1	1	1	1	0	1	1	1	1	0	0	0	0	
133430	150533	1	1	1	0	1	0	1	1	0	1	1	0	1	1	1	1	1	1	1	1	1	0	1	0	0	0	1	0	
133330	151094	1	1	1	0	1	0	0	1	0	1	1	0	1	1	1	1	1	1	1	1	1	0	1	1	0	0	1	0	
132209	151260	0	0	1	0	0	1	1	1	0	1	1	1	1	1	1	1	1	0	1	1	1	0	1	1	0	1	1	0	
132089	151577	0	1	1	0	0	1	1	1	0	1	1	1	1	1	1	1	1	0	1	0	1	0	1	1	0	1	1	0	
131374	151789	0	0	1	0	0	1	1	1	0	1	1	1	1	1	1	1	1	0	1	1	1	1	1	1	0	0	1	0	
131254	152106	0	1	1	0	0	1	1	1	0	1	1	1	1	1	1	1	1	0	1	0	1	1	1	1	0	0	1	0	
131099	152132	0	1	1	0	1	1	1	1	0	1	1	1	1	1	1	1	1	1	1	0	1	0	0	1	0	0	1	0	
129942	152258	1	0	1	0	0	0	1	1	0	1	1	1	1	1	1	1	1	1	1	0	1	1	1	1	0	0	1	0	
129759	152382	0	1	1	0	1	1	1	1	0	1	1	0	1	1	1	1	1	1	1	0	1	1	0	1	0	0	1	0	
129634	152422	0	1	1	0	0	1	1	1	0	1	1	1	1	1	1	1	1	1	1	0	1	1	1	1	0	0	0	0	
129347	152481	1	0	1	0	0	1	0	1	0	1	1	1	1	1	1	0	1	1	1	1	1	0	1	1	0	1	1	0	
129277	152614	1	0	1	0	0	1	0	1	0	1	1	1	0	1	1	1	1	1	1	1	1	0	1	1	0	1	1	0	
129259	162114	0	1	1	0	0	1	1	1	0	1	1	1	1	1	1	1	1	1	1	1	1	0	1	1	0	0	1	0	
128329	162370	0	1	1	0	0	1	0	1	0	1	1	1	1	1	1	1	1	1	1	1	1	0	1	1	0	1	1	0	
128057	162506	1	1	1	0	0	0	1	1	0	1	1	1	1	1	1	1	1	1	1	1	1	0	1	1	0	0	1	0	
127494	162899	0	1	1	0	0	1	0	1	0	1	1	1	1	1	1	1	1	1	1	1	1	1	1	1	0	0	1	0	
127243	163220	1	0	0	0	1	1	1	1	0	1	0	1	1	1	1	1	1	1	1	0	1	1	1	1	0	1	1	0	
126735	163475	0	0	0	0	1	1	1	1	0	1	1	1	1	1	1	1	1	0	1	1	1	1	1	1	0	1	1	0	
126615	163792	0	1	0	0	1	1	1	1	0	1	1	1	1	1	1	1	1	0	1	0	1	1	1	1	0	1	1	0	
126435	163921	0	1	0	0	1	1	1	1	0	1	1	1	0	1	1	1	1	1	1	0	1	1	1	1	0	1	1	0	
125748	164151	1	1	0	0	1	1	1	1	0	1	1	1	1	1	1	0	1	0	1	1	1	0	1	1	0	1	1	0	
125678	164284	1	1	0	0	1	1	1	1	0	1	1	1	0	1	1	1	1	0	1	1	1	0	1	1	0	1	1	0	
125448	164361	1	1	0	0	1	1	1	1	0	1	1	1	0	1	1	1	1	1	1	0	1	0	1	1	0	1	1	0	
125358	173468	1	1	0	0	1	1	1	1	0	1	0	1	1	1	1	1	1	1	1	1	1	0	1	1	0	1	1	0	
124738	173838	1	0	0	0	1	1	1	1	0	1	1	0	1	1	1	1	1	1	1	1	1	1	1	1	0	1	1	0	
124618	174155	1	1	0	0	1	1	1	1	0	1	1	0	1	1	1	1	1	1	1	0	1	1	1	1	0	1	1	0	
124313	174373	1	0	0	0	1	1	0	1	0	1	1	1	1	1	1	1	1	1	1	1	1	1	1	1	0	1	1	0	
124193	174690	1	1	0	0	1	1	0	1	0	1	1	1	1	1	1	1	1	1	1	0	1	1	1	1	0	1	1	0	
122803	174929	1	1	0	0	1	1	0	1	0	1	1	1	1	1	1	1	1	1	1	1	1	1	1	1	0	1	0	0	
121868	175025	1	1	0	0	1	1	0	1	0	1	1	1	1	1	1	1	1	1	1	1	1	0	1	1	0	1	1	0	
121033	175554	1	1	0	0	1	1	0	1	0	1	1	1	1	1	1	1	1	1	1	1	1	1	1	1	0	0	1	0	
119885	175562	0	1	0	0	1	1	0	1	0	1	1	1	1	1	1	1	1	1	1	1	1	1	1	1	1	0	1	0	
118898	176002	1	1	0	0	1	1	0	1	0	1	1	1	1	1	1	1	1	1	1	1	1	0	1	1	1	0	1	0	
117558	176252	1	1	0	0	1	1	0	1	0	1	1	0	1	1	1	1	1	1	1	1	1	1	1	1	1	0	1	0	
117325	176628	1	1	0	0	1	1	1	1	0	1	1	1	1	1	1	1	1	0	1	1	1	1	0	1	0	1	1	0	
117145	176757	1	1	0	0	1	1	1	1	0	1	1	1	0	1	1	1	1	1	1	1	1	1	0	1	0	1	1	0	
115705	176944	1	1	0	0	1	1	1	1	0	1	1	1	1	1	1	1	1	1	1	1	1	1	0	1	0	1	0	0	
115255	186687	1	1	0	0	0	1	1	1	0	1	1	1	1	1	1	1	1	1	1	1	1	1	1	1	0	1	1	0	
114107	186695	0	1	0	0	0	1	1	1	0	1	1	1	1	1	1	1	1	1	1	1	1	1	1	1	1	1	1	0	
113120	187135	1	1	0	0	0	1	1	1	0	1	1	1	1	1	1	1	1	1	1	1	1	0	1	1	1	1	1	0	
112665	187231	1	1	0	1	0	0	1	1	0	1	1	1	0	1	1	1	1	1	1	1	1	1	1	1	1	1	1	0	
112285	187664	1	1	0	0	0	1	1	1	0	1	1	1	1	1	1	1	1	1	1	1	1	1	1	1	1	0	1	0	
111355	187920	1	1	0	0	0	1	0	1	0	1	1	1	1	1	1	1	1	1	1	1	1	1	1	1	1	1	1	0	
108870	188462	1	1	0	0	0	0	0	1	1	1	1	1	1	1	1	1	1	1	1	1	1	1	1	1	1	1	1	0	
105223	190455	1	1	0	0	1	1	1	1	1	1	1	1	1	1	1	0	1	1	1	1	0	1	1	1	0	1	1	0	
102743	190740	1	1	0	1	1	1	1	1	0	1	1	1	1	1	1	0	1	1	1	1	0	0	1	1	1	1	1	0	
102563	190823	1	1	0	0	1	0	1	1	1	1	1	1	1	1	1	1	1	1	1	1	0	1	1	1	0	1	1	0	
101908	191269	1	1	0	1	1	1	1	1	0	1	1	1	1	1	1	0	1	1	1	1	0	1	1	1	1	0	1	0	
101323	191452	1	0	0	0	1	1	0	1	1	1	1	1	1	1	1	1	1	1	1	1	0	1	1	1	1	1	1	0	
101203	191769	1	1	0	0	1	1	0	1	1	1	1	1	1	1	1	1	1	1	1	0	0	1	1	1	1	1	1	0	
99593	191800	1	1	0	0	1	0	1	1	1	1	1	1	1	1	1	1	1	1	1	1	0	1	1	1	1	0	1	0	
99468	191845	1	1	0	1	1	1	0	1	0	1	1	1	1	1	1	1	1	1	1	1	0	1	1	1	1	1	0	0	
98878	192104	1	1	0	0	1	1	0	1	1	1	1	1	1	1	1	1	1	1	1	1	0	0	1	1	1	1	1	0	
98043	192633	1	1	0	0	1	1	0	1	1	1	1	1	1	1	1	1	1	1	1	1	0	1	1	1	1	0	1	0	
96443	192721	1	1	0	1	1	1	0	1	0	0	1	1	1	1	1	1	1	1	1	1	0	1	1	1	1	1	1	0	
94703	193104	1	1	0	0	1	1	0	0	0	1	1	1	1	1	1	1	1	1	1	1	1	1	1	1	1	1	1	0	
94335	193707	1	1	0	0	1	1	1	1	1	1	1	1	1	1	1	1	1	0	1	1	0	1	0	1	1	1	1	0	
94320	203217	1	1	0	1	1	1	1	1	0	1	1	1	1	1	1	1	1	1	1	1	0	1	0	1	1	1	1	0	
92265	203766	1	1	0	0	0	1	1	1	1	1	1	1	1	1	1	1	1	1	1	1	0	1	1	1	1	1	1	0	
